computational_data/solutions/ER_n20_p020_s0.sol
Optimal - objective value 9.00000000
      0 r_0                         1                       1
      1 r_1                         0                       1
      2 r_2                         0                       1
      3 r_3                         0                       1
      4 r_4                         0                       1
      5 r_5                         0                       1
      6 r_6                         0                       1
      7 r_7                         1                       1
      8 r_8                         1                       1
      9 r_9                         0                       1
     10 r_10                        0                       1
     11 r_11                        0                       1
     12 r_12                        0                       1
     13 r_13                        0                       1
     14 r_14                        0                       1
     15 r_15                        0                       1
     16 r_16                        0                       1
     17 r_17                        0                       1
     18 r_18                        1                       1
     19 r_19                        0                       1
     20 b_0                         0                       1
     21 b_1                         0                       1
     22 b_2                         0                       1
     23 b_3                         0                       1
     24 b_4                         0                       1
     25 b_5                         1                       1
     26 b_6                         1                       1
     27 b_7                         0                       1
     28 b_8                         0                       1
     29 b_9                         0                       1
     30 b_10                        1                       1
     31 b_11                        1                       1
     32 b_12                        0                       1
     33 b_13                        0                       1
     34 b_14                        0                       1
     35 b_15                        1                       1
     36 b_16                        0                       1
     37 b_17                        0                       1
     38 b_18                        0                       1
     39 b_19                        0                       1
