computational_data/logs/ER_n20_p020_s0.log
Welcome to the CBC MILP Solver 
Version: 2.10.12 
Build Date: Aug 20 2024 

command line - /opt/homebrew/bin/cbc computational_data/lp/ER_n20_p020_s0.lp seconds 10.0 solve solu computational_data/solutions/ER_n20_p020_s0.sol (default strategy 1)
seconds was changed from 1e+100 to 10
Continuous objective value is 8 - 0.00 seconds
Cgl0003I 0 fixed, 0 tightened bounds, 21 strengthened rows, 0 substitutions
Cgl0003I 0 fixed, 0 tightened bounds, 18 strengthened rows, 0 substitutions
Cgl0003I 0 fixed, 0 tightened bounds, 10 strengthened rows, 0 substitutions
Cgl0004I processed model has 112 rows, 38 columns (38 integer (38 of which binary)) and 439 elements
Cutoff increment increased from 1e-05 to 0.9999
Cbc0038I Initial state - 14 integers unsatisfied sum - 7
Cbc0038I Pass   1: suminf.    6.00000 (12) obj. 8 iterations 8
Cbc0038I Pass   2: suminf.    5.25000 (13) obj. 8.75 iterations 22
Cbc0038I Pass   3: suminf.    4.00000 (12) obj. 9.33333 iterations 16
Cbc0038I Pass   4: suminf.    0.00000 (0) obj. 10 iterations 16
Cbc0038I Solution found of 10
Cbc0038I Rounding solution of 9 is better than previous of 10

Cbc0038I Before mini branch and bound, 16 integers at bound fixed and 0 continuous
Cbc0038I Full problem 112 rows 38 columns, reduced to 58 rows 20 columns
Cbc0038I Mini branch and bound did not improve solution (0.01 seconds)
Cbc0038I Round again with cutoff of 8.00009
Cbc0038I Reduced cost fixing fixed 6 variables on major pass 2
Cbc0038I Pass   5: suminf.    6.00000 (12) obj. 8 iterations 0
Cbc0038I Pass   6: suminf.    5.99991 (13) obj. 8.00009 iterations 22
Cbc0038I Pass   7: suminf.    5.99977 (17) obj. 8.00009 iterations 10
Cbc0038I Pass   8: suminf.    5.99973 (17) obj. 8.00009 iterations 9
Cbc0038I Pass   9: suminf.    5.99986 (15) obj. 8.00009 iterations 27
Cbc0038I Pass  10: suminf.    5.99977 (16) obj. 8.00009 iterations 20
Cbc0038I Pass  11: suminf.    5.99964 (17) obj. 8.00009 iterations 14
Cbc0038I Pass  12: suminf.    5.99961 (22) obj. 8.00009 iterations 4
Cbc0038I Pass  13: suminf.    5.99961 (22) obj. 8.00009 iterations 1
Cbc0038I Pass  14: suminf.    5.99967 (15) obj. 8.00009 iterations 25
Cbc0038I Pass  15: suminf.    5.99946 (15) obj. 8.00009 iterations 10
Cbc0038I Pass  16: suminf.    5.99964 (17) obj. 8.00009 iterations 23
Cbc0038I Pass  17: suminf.    5.99961 (22) obj. 8.00009 iterations 6
Cbc0038I Pass  18: suminf.    5.99961 (22) obj. 8.00009 iterations 0
Cbc0038I Pass  19: suminf.    5.99967 (15) obj. 8.00009 iterations 29
Cbc0038I Pass  20: suminf.    5.99946 (15) obj. 8.00009 iterations 10
Cbc0038I Pass  21: suminf.    5.99964 (17) obj. 8.00009 iterations 23
Cbc0038I Pass  22: suminf.    5.99961 (22) obj. 8.00009 iterations 6
Cbc0038I Pass  23: suminf.    5.99961 (22) obj. 8.00009 iterations 0
Cbc0038I Pass  24: suminf.    5.99991 (15) obj. 8.00009 iterations 19
Cbc0038I Pass  25: suminf.    5.99973 (21) obj. 8.00009 iterations 14
Cbc0038I Pass  26: suminf.    5.99977 (13) obj. 8.00009 iterations 26
Cbc0038I Pass  27: suminf.    5.99964 (17) obj. 8.00009 iterations 14
Cbc0038I Pass  28: suminf.    5.99961 (22) obj. 8.00009 iterations 4
Cbc0038I Pass  29: suminf.    5.99961 (22) obj. 8.00009 iterations 0
Cbc0038I Pass  30: suminf.    5.99991 (13) obj. 8.00009 iterations 25
Cbc0038I Pass  31: suminf.    5.99991 (13) obj. 8.00009 iterations 10
Cbc0038I Pass  32: suminf.    5.99991 (13) obj. 8.00009 iterations 36
Cbc0038I Pass  33: suminf.    5.99982 (15) obj. 8.00009 iterations 18
Cbc0038I Pass  34: suminf.    5.99973 (19) obj. 8.00009 iterations 8
Cbc0038I No solution found this major pass
Cbc0038I Before mini branch and bound, 8 integers at bound fixed and 0 continuous
Cbc0038I Full problem 112 rows 38 columns, reduced to 90 rows 30 columns
Cbc0038I Mini branch and bound did not improve solution (0.03 seconds)
Cbc0038I After 0.03 seconds - Feasibility pump exiting with objective of 9 - took 0.02 seconds
Cbc0012I Integer solution of 9 found by feasibility pump after 0 iterations and 0 nodes (0.03 seconds)
Cbc0038I Full problem 112 rows 38 columns, reduced to 36 rows 12 columns
Cbc0031I 4 added rows had average density of 8.25
Cbc0013I At root node, 34 cuts changed objective from 8 to 8.75 in 1 passes
Cbc0014I Cut generator 0 (Probing) - 0 row cuts average 0.0 elements, 0 column cuts (0 active)  in 0.000 seconds - new frequency is -100
Cbc0014I Cut generator 1 (Gomory) - 9 row cuts average 24.0 elements, 0 column cuts (0 active)  in 0.000 seconds - new frequency is 1
Cbc0014I Cut generator 2 (Knapsack) - 0 row cuts average 0.0 elements, 0 column cuts (0 active)  in 0.000 seconds - new frequency is -100
Cbc0014I Cut generator 3 (Clique) - 0 row cuts average 0.0 elements, 0 column cuts (0 active)  in 0.000 seconds - new frequency is -100
Cbc0014I Cut generator 4 (MixedIntegerRounding2) - 0 row cuts average 0.0 elements, 0 column cuts (0 active)  in 0.000 seconds - new frequency is -100
Cbc0014I Cut generator 5 (FlowCover) - 0 row cuts average 0.0 elements, 0 column cuts (0 active)  in 0.000 seconds - new frequency is -100
Cbc0014I Cut generator 6 (TwoMirCuts) - 15 row cuts average 26.1 elements, 0 column cuts (0 active)  in 0.000 seconds - new frequency is -100
Cbc0014I Cut generator 7 (ZeroHalf) - 10 row cuts average 13.6 elements, 0 column cuts (0 active)  in 0.000 seconds - new frequency is 1
Cbc0001I Search completed - best objective 9, took 3 iterations and 0 nodes (0.03 seconds)
Cbc0035I Maximum depth 0, 6 variables fixed on reduced cost
Cuts at root node changed objective from 8 to 8.75
Probing was tried 1 times and created 0 cuts of which 0 were active after adding rounds of cuts (0.000 seconds)
Gomory was tried 1 times and created 9 cuts of which 0 were active after adding rounds of cuts (0.000 seconds)
Knapsack was tried 1 times and created 0 cuts of which 0 were active after adding rounds of cuts (0.000 seconds)
Clique was tried 1 times and created 0 cuts of which 0 were active after adding rounds of cuts (0.000 seconds)
MixedIntegerRounding2 was tried 1 times and created 0 cuts of which 0 were active after adding rounds of cuts (0.000 seconds)
FlowCover was tried 1 times and created 0 cuts of which 0 were active after adding rounds of cuts (0.000 seconds)
TwoMirCuts was tried 1 times and created 15 cuts of which 0 were active after adding rounds of cuts (0.000 seconds)
ZeroHalf was tried 1 times and created 10 cuts of which 0 were active after adding rounds of cuts (0.000 seconds)

Result - Optimal solution found

Objective value:                9.00000000
Enumerated nodes:               0
Total iterations:               3
Time (CPU seconds):             0.03
Time (Wallclock seconds):       0.03

Total time (CPU seconds):       0.03   (Wallclock seconds):       0.03

